r = [
0,67,59,9,71,6,42,35,81,28,4,0
];
p = [
0,30,4,17,25,19,8,12,15,24,27,0
];
e = [
0,16,5,14,8,14,3,10,18,4,11,0
];
d = [
0,120,164,137,118,117,140,163,185,133,88,193
];
d_bar = [
0,135,166,146,131,127,144,169,193,145,102,193
];
w = [
0,1.066666667,2.5,1.555555556,0.615384615,1.4,0.75,1.666666667,2.25,0.333333333,0.785714286,0
];
